12
0 56 73 45 40 68 85 16 33 67 94 8
56 0 7 45 39 27 55 86 37 32 28 28
73 7 0 82 99 90 92 46 95 75 29 57
45 45 82 0 74 59 35 20 48 36 29 22
40 39 99 74 0 29 17 47 88 91 43 76
68 27 90 59 29 0 40 75 52 36 44 38
85 55 92 35 17 40 0 16 52 93 76 25
16 86 46 20 47 75 16 0 73 25 28 96
33 37 95 48 88 52 52 73 0 11 82 79
67 32 75 36 91 36 93 25 11 0 19 62
94 28 29 29 43 44 76 28 82 19 0 71
8 28 57 22 76 38 25 96 79 62 71 0
